%%%%%%%%%%%%%%%%%%%%%%%%%%%%%%%%%%%%%%%%%%%%%%%%%%%%%%%%%%%%%%%%%%%%%%%%%
%FILE DATA:	Soccer Computational Problem for MiniZinc Models
%AUTHORS:	Robinson Duque, Alejandro Arbelaez, Juan Francisco Díaz
%CONTACT:  	robinson.duque@correounivalle.edu.co 
%LAST UPDATE:	May, 2018 
%ROUND ROBIN:2
%TEAMS:20
%PRESENT FIXTURE:22
%FIXTURES TO PLAY:16
%GAMES TO PLAY:160
%%%%%%%%%%%%%%%%%%%%%%%%%%%%%%%%%%%%%%%%%%%%%%%%%%%%%%%%%%%%%%%%%%%%%%%%%
%Number of teams:
n=20;

%For the purpose of our models, we offer two representations of the games to play, namely fixtures and games to play:

%Fixtures to play:
%fixtures=[|0,0,1,0,0,1,1,1,1,1,1,1,1,1,1,1,1,1,1,1
%|0,0,1,0,1,1,1,1,0,1,1,1,1,1,1,1,1,1,1,1
%|1,1,0,0,1,1,1,1,1,0,0,1,1,1,1,1,1,1,1,1
%|0,0,0,0,1,1,1,1,1,1,1,1,1,1,1,1,1,1,1,1
%|0,1,1,1,0,1,0,0,1,1,1,1,1,1,1,1,1,1,1,1
%|1,1,1,1,1,0,0,0,0,1,1,1,1,1,1,1,1,1,1,1
%|1,1,1,1,0,0,0,0,1,1,1,1,1,1,1,1,1,1,1,1
%|1,1,1,1,0,0,0,0,1,1,1,1,1,1,1,1,1,1,1,1
%|1,0,1,1,1,0,1,1,0,1,1,1,1,1,1,0,1,1,1,1
%|1,1,0,1,1,1,1,1,1,0,1,1,1,1,1,1,0,1,1,0
%|1,1,0,1,1,1,1,1,1,1,0,1,1,1,0,1,1,1,0,1
%|1,1,1,1,1,1,1,1,1,1,1,0,0,1,0,1,1,1,0,1
%|1,1,1,1,1,1,1,1,1,1,1,0,0,1,0,1,0,1,1,1
%|1,1,1,1,1,1,1,1,1,1,1,1,1,0,1,0,1,1,0,0
%|1,1,1,1,1,1,1,1,1,1,0,0,0,1,0,1,1,1,1,1
%|1,1,1,1,1,1,1,1,0,1,1,1,1,0,1,0,1,0,1,1
%|1,1,1,1,1,1,1,1,1,0,1,1,0,1,1,1,0,0,1,1
%|1,1,1,1,1,1,1,1,1,1,1,1,1,1,1,0,0,0,1,0
%|1,1,1,1,1,1,1,1,1,1,0,0,1,0,1,1,1,1,0,1
%|1,1,1,1,1,1,1,1,1,0,1,1,1,0,1,1,1,0,1,0|];

%Played Fixtures:
%PlayedFixtures=[|0,2,1,2,2,1,1,1,1,1,1,1,1,1,1,1,1,1,1,1
%|2,0,1,2,1,1,1,1,2,1,1,1,1,1,1,1,1,1,1,1
%|1,1,0,2,1,1,1,1,1,2,2,1,1,1,1,1,1,1,1,1
%|2,2,2,0,1,1,1,1,1,1,1,1,1,1,1,1,1,1,1,1
%|2,1,1,1,0,1,2,2,1,1,1,1,1,1,1,1,1,1,1,1
%|1,1,1,1,1,0,2,2,2,1,1,1,1,1,1,1,1,1,1,1
%|1,1,1,1,2,2,0,2,1,1,1,1,1,1,1,1,1,1,1,1
%|1,1,1,1,2,2,2,0,1,1,1,1,1,1,1,1,1,1,1,1
%|1,2,1,1,1,2,1,1,0,1,1,1,1,1,1,2,1,1,1,1
%|1,1,2,1,1,1,1,1,1,0,1,1,1,1,1,1,2,1,1,2
%|1,1,2,1,1,1,1,1,1,1,0,1,1,1,2,1,1,1,2,1
%|1,1,1,1,1,1,1,1,1,1,1,0,2,1,2,1,1,1,2,1
%|1,1,1,1,1,1,1,1,1,1,1,2,0,1,2,1,2,1,1,1
%|1,1,1,1,1,1,1,1,1,1,1,1,1,0,1,2,1,1,2,2
%|1,1,1,1,1,1,1,1,1,1,2,2,2,1,0,1,1,1,1,1
%|1,1,1,1,1,1,1,1,2,1,1,1,1,2,1,0,1,2,1,1
%|1,1,1,1,1,1,1,1,1,2,1,1,2,1,1,1,0,2,1,1
%|1,1,1,1,1,1,1,1,1,1,1,1,1,1,1,2,2,0,1,2
%|1,1,1,1,1,1,1,1,1,1,2,2,1,2,1,1,1,1,0,1
%|1,1,1,1,1,1,1,1,1,2,1,1,1,2,1,1,1,2,1,0|];

%Games to play:
games=[|3,1|3,2|5,2|5,3|5,4|6,1|6,2|6,3|6,4|6,5|7,1|7,2|7,3|7,4|8,1|8,2|8,3|8,4|9,1|9,3|9,4|9,5|9,7|9,8|10,1|10,2|10,4|10,5|10,6|10,7|10,8|10,9|11,1|11,2|11,4|11,5|11,6|11,7|11,8|11,9|11,10|12,1|12,2|12,3|12,4|12,5|12,6|12,7|12,8|12,9|12,10|12,11|13,1|13,2|13,3|13,4|13,5|13,6|13,7|13,8|13,9|13,10|13,11|14,1|14,2|14,3|14,4|14,5|14,6|14,7|14,8|14,9|14,10|14,11|14,12|14,13|15,1|15,2|15,3|15,4|15,5|15,6|15,7|15,8|15,9|15,10|15,14|16,1|16,2|16,3|16,4|16,5|16,6|16,7|16,8|16,10|16,11|16,12|16,13|16,15|17,1|17,2|17,3|17,4|17,5|17,6|17,7|17,8|17,9|17,11|17,12|17,14|17,15|17,16|18,1|18,2|18,3|18,4|18,5|18,6|18,7|18,8|18,9|18,10|18,11|18,12|18,13|18,14|18,15|19,1|19,2|19,3|19,4|19,5|19,6|19,7|19,8|19,9|19,10|19,13|19,15|19,16|19,17|19,18|20,1|20,2|20,3|20,4|20,5|20,6|20,7|20,8|20,9|20,11|20,12|20,13|20,15|20,16|20,17|20,19|];

%Played Games:
%PlayedGames=[|2,1|2,1|3,1|3,2|4,1|4,1|4,2|4,2|4,3|4,3|5,1|5,1|5,2|5,3|5,4|6,1|6,2|6,3|6,4|6,5|7,1|7,2|7,3|7,4|7,5|7,5|7,6|7,6|8,1|8,2|8,3|8,4|8,5|8,5|8,6|8,6|8,7|8,7|9,1|9,2|9,2|9,3|9,4|9,5|9,6|9,6|9,7|9,8|10,1|10,2|10,3|10,3|10,4|10,5|10,6|10,7|10,8|10,9|11,1|11,2|11,3|11,3|11,4|11,5|11,6|11,7|11,8|11,9|11,10|12,1|12,2|12,3|12,4|12,5|12,6|12,7|12,8|12,9|12,10|12,11|13,1|13,2|13,3|13,4|13,5|13,6|13,7|13,8|13,9|13,10|13,11|13,12|13,12|14,1|14,2|14,3|14,4|14,5|14,6|14,7|14,8|14,9|14,10|14,11|14,12|14,13|15,1|15,2|15,3|15,4|15,5|15,6|15,7|15,8|15,9|15,10|15,11|15,11|15,12|15,12|15,13|15,13|15,14|16,1|16,2|16,3|16,4|16,5|16,6|16,7|16,8|16,9|16,9|16,10|16,11|16,12|16,13|16,14|16,14|16,15|17,1|17,2|17,3|17,4|17,5|17,6|17,7|17,8|17,9|17,10|17,10|17,11|17,12|17,13|17,13|17,14|17,15|17,16|18,1|18,2|18,3|18,4|18,5|18,6|18,7|18,8|18,9|18,10|18,11|18,12|18,13|18,14|18,15|18,16|18,16|18,17|18,17|19,1|19,2|19,3|19,4|19,5|19,6|19,7|19,8|19,9|19,10|19,11|19,11|19,12|19,12|19,13|19,14|19,14|19,15|19,16|19,17|19,18|20,1|20,2|20,3|20,4|20,5|20,6|20,7|20,8|20,9|20,10|20,10|20,11|20,12|20,13|20,14|20,14|20,15|20,16|20,17|20,18|20,18|20,19|];

%Played Games - Win Results:
%% 0  0  0  0  0  0  0  0  0  0  0  0  0  0  0  0  0  0  0  0
%% 0  0  0  0  0  0  0  0  0  0  0  0  0  0  0  0  0  0  0  0
%% 0  1  0  0  1  1  1  1  1  0  0  0  1  0  0  0  0  0  0  1
%% 0  0  0  0  1  1  1  0  0  0  0  0  1  0  1  0  0  0  0  1
%% 0  0  0  0  0  1  0  0  0  1  0  0  0  0  0  0  0  0  0  1
%% 0  1  0  0  0  0  0  0  0  1  0  0  1  0  0  0  0  0  0  0
%% 0  0  0  0  0  0  0  0  0  0  0  0  1  0  0  0  0  0  0  0
%% 1  0  0  0  0  0  0  0  0  0  0  0  0  0  0  0  0  0  0  0
%% 0  0  0  0  0  0  0  0  0  0  0  0  0  0  0  0  0  0  0  0
%% 1  1  0  0  0  0  0  1  0  0  0  0  0  0  1  0  0  0  0  0
%% 1  1  0  1  1  1  1  1  0  0  0  0  0  1  0  0  1  0  2  0
%% 1  1  1  0  0  0  1  1  1  1  1  0  0  1  0  0  1  0  2  1
%% 0  1  0  0  0  0  0  1  1  1  0  0  0  0  0  0  0  0  0  0
%% 0  0  1  1  1  0  1  0  0  1  0  0  0  0  0  0  1  0  0  0
%% 0  0  0  0  0  0  0  0  0  0  0  0  0  0  0  0  0  0  0  0
%% 1  0  1  1  0  0  1  1  0  1  1  0  1  2  0  0  1  0  1  0
%% 1  0  1  0  1  1  0  0  1  0  0  0  0  0  1  0  0  0  0  1
%% 0  1  1  1  0  0  1  1  1  0  0  1  1  0  1  2  0  0  0  0
%% 0  0  0  1  1  0  1  1  0  0  0  0  0  0  0  0  1  0  0  1
%% 0  0  0  0  0  1  0  0  1  0  0  0  0  0  1  0  0  0  0  0
%Played Games - Tie Results:
%% 0  2  1  2  2  1  1  0  1  0  0  0  1  1  1  0  0  1  1  1
%% 2  0  0  2  1  0  1  1  2  0  0  0  0  1  1  1  1  0  1  1
%% 1  0  0  2  0  0  0  0  0  2  2  0  0  0  1  0  0  0  1  0
%% 2  2  2  0  0  0  0  1  1  1  0  1  0  0  0  0  1  0  0  0
%% 2  1  0  0  0  0  2  2  1  0  0  1  1  0  1  1  0  1  0  0
%% 1  0  0  0  0  0  2  2  2  0  0  1  0  1  1  1  0  1  1  0
%% 1  1  0  0  2  2  0  2  1  1  0  0  0  0  1  0  1  0  0  1
%% 0  1  0  1  2  2  2  0  1  0  0  0  0  1  1  0  1  0  0  1
%% 1  2  0  1  1  2  1  1  0  1  1  0  0  1  1  2  0  0  1  0
%% 0  0  2  1  0  0  1  0  1  0  1  0  0  0  0  0  2  1  1  2
%% 0  0  2  0  0  0  0  0  1  1  0  0  1  0  2  0  0  1  0  1
%% 0  0  0  1  1  1  0  0  0  0  0  0  2  0  2  1  0  0  0  0
%% 1  0  0  0  1  0  0  0  0  0  1  2  0  1  2  0  2  0  1  1
%% 1  1  0  0  0  1  0  1  1  0  0  0  1  0  1  0  0  1  2  2
%% 1  1  1  0  1  1  1  1  1  0  2  2  2  1  0  1  0  0  1  0
%% 0  1  0  0  1  1  0  0  2  0  0  1  0  0  1  0  0  0  0  1
%% 0  1  0  1  0  0  1  1  0  2  0  0  2  0  0  0  0  2  0  0
%% 1  0  0  0  1  1  0  0  0  1  1  0  0  1  0  0  2  0  1  2
%% 1  1  1  0  0  1  0  0  1  1  0  0  1  2  1  0  0  1  0  0
%% 1  1  0  0  0  0  1  1  0  2  1  0  1  2  0  1  0  2  0  0
%Played Games - Lose Results:
%% 0  0  0  0  0  0  0  1  0  1  1  1  0  0  0  1  1  0  0  0
%% 0  0  1  0  0  1  0  0  0  1  1  1  1  0  0  0  0  1  0  0
%% 0  0  0  0  0  0  0  0  0  0  0  1  0  1  0  1  1  1  0  0
%% 0  0  0  0  0  0  0  0  0  0  1  0  0  1  0  1  0  1  1  0
%% 0  0  1  1  0  0  0  0  0  0  1  0  0  1  0  0  1  0  1  0
%% 0  0  1  1  1  0  0  0  0  0  1  0  0  0  0  0  1  0  0  1
%% 0  0  1  1  0  0  0  0  0  0  1  1  0  1  0  1  0  1  1  0
%% 0  0  1  0  0  0  0  0  0  1  1  1  1  0  0  1  0  1  1  0
%% 0  0  1  0  0  0  0  0  0  0  0  1  1  0  0  0  1  1  0  1
%% 0  0  0  0  1  1  0  0  0  0  0  1  1  1  0  1  0  0  0  0
%% 0  0  0  0  0  0  0  0  0  0  0  1  0  0  0  1  0  0  0  0
%% 0  0  0  0  0  0  0  0  0  0  0  0  0  0  0  0  0  1  0  0
%% 0  0  1  1  0  1  1  0  0  0  0  0  0  0  0  1  0  1  0  0
%% 0  0  0  0  0  0  0  0  0  0  1  1  0  0  0  2  0  0  0  0
%% 0  0  0  1  0  0  0  0  0  1  0  0  0  0  0  0  1  1  0  1
%% 0  0  0  0  0  0  0  0  0  0  0  0  0  0  0  0  0  2  0  0
%% 0  0  0  0  0  0  0  0  0  0  1  1  0  1  0  1  0  0  1  0
%% 0  0  0  0  0  0  0  0  0  0  0  0  0  0  0  0  0  0  0  0
%% 0  0  0  0  0  0  0  0  0  0  2  2  0  0  0  1  0  0  0  0
%% 0  0  1  1  1  0  0  0  0  0  0  1  0  0  0  0  1  0  1  0

%%Initial points:
iPoints=[16, 15, 33, 29, 22, 22, 16, 16, 16, 24, 42, 47, 24, 30, 17, 44, 31, 44, 29, 22];

%%Initial positions:
%iPositions=[19, 20, 5, 9, 14, 13, 18, 17, 16, 11, 4, 1, 10, 7, 15, 2, 6, 3, 8, 12];

%%Position Constraints:
%numberPositionConstraints=2;

%%Total Fixtures:
%totalFixtures=38;

%%Fixtures to Play:
%fixturesToPlay=16;

%%Position Constraints Built With
%wantedPoints=[3, 1, 3, 0, 0, 0, 0, 0, 0, 1, 0, 0, 1, 3, 3, 1, 3, 1, 3, 1, 1, 1, 3, 1, 3, 3, 1, 0, 3, 0, 1, 3, 3, 0, 1, 0, 0, 1, 1, 0, 0, 1, 1, 0, 0, 0, 0, 0, 0, 0, 3, 0, 3, 1, 0, 0, 3, 1, 0, 0, 1, 1, 1, 1, 0, 1, 1, 3, 1, 1, 0, 0, 1, 0, 3, 1, 3, 0, 1, 3, 0, 1, 1, 0, 3, 3, 1, 3, 1, 0, 1, 1, 3, 1, 0, 3, 1, 1, 3, 1, 3, 1, 0, 0, 3, 3, 0, 1, 3, 3, 0, 1, 0, 1, 0, 3, 0, 1, 1, 0, 3, 3, 0, 1, 1, 1, 0, 0, 3, 3, 1, 0, 1, 1, 3, 0, 3, 1, 3, 1, 1, 1, 3, 3, 0, 0, 1, 0, 0, 0, 0, 1, 1, 0, 3, 1, 0, 3, 3, 3];

%%Probabilities:
probabilities=[|34,21,0,45,|94,4,0,2,|51,37,0,12,|0,65,0,35,|29,56,0,15,|43,50,0,7,|80,19,0,1,|1,72,0,27,|40,43,0,17,|37,40,0,23,|80,20,0,0,|100,0,0,0,|25,29,0,46,|99,0,0,1,|31,4,0,65,|72,15,0,13,|44,55,0,1,|61,9,0,30,|89,4,0,7,|11,61,0,28,|8,16,0,76,|64,33,0,3,|17,75,0,8,|15,29,0,56,|55,27,0,18,|52,22,0,26,|22,66,0,12,|33,13,0,54,|11,33,0,56,|19,14,0,67,|52,26,0,22,|53,25,0,22,|20,79,0,1,|88,1,0,11,|58,37,0,5,|65,10,0,25,|9,6,0,85,|61,13,0,26,|74,26,0,0,|57,10,0,33,|64,5,0,31,|82,13,0,5,|28,18,0,54,|29,18,0,53,|30,12,0,58,|3,83,0,14,|0,100,0,0,|11,33,0,56,|75,8,0,17,|62,13,0,25,|53,44,0,3,|33,56,0,11,|93,6,0,1,|22,74,0,4,|10,80,0,10,|77,17,0,6,|8,66,0,26,|28,71,0,1,|67,31,0,2,|34,65,0,1,|95,2,0,3,|4,65,0,31,|12,7,0,81,|0,53,0,47,|70,10,0,20,|33,52,0,15,|17,52,0,31,|74,18,0,8,|32,4,0,64,|37,27,0,36,|22,16,0,62,|96,2,0,2,|31,22,0,47,|99,0,0,1,|33,47,0,20,|17,19,0,64,|52,3,0,45,|62,6,0,32,|94,1,0,5,|82,18,0,0,|97,2,0,1,|27,38,0,35,|81,17,0,2,|30,21,0,49,|79,10,0,11,|75,14,0,11,|55,32,0,13,|89,2,0,9,|22,19,0,59,|84,9,0,7,|64,36,0,0,|57,23,0,20,|16,8,0,76,|50,16,0,34,|61,18,0,21,|28,10,0,62,|98,2,0,0,|93,3,0,4,|81,19,0,0,|74,0,0,26,|84,14,0,2,|46,29,0,25,|31,53,0,16,|10,70,0,20,|38,17,0,45,|56,23,0,21,|17,71,0,12,|84,5,0,11,|46,31,0,23,|54,9,0,37,|27,70,0,3,|56,5,0,39,|33,39,0,28,|2,12,0,86,|80,12,0,8,|15,63,0,22,|100,0,0,0,|68,9,0,23,|3,15,0,82,|42,49,0,9,|19,33,0,48,|99,0,0,1,|74,21,0,5,|62,16,0,22,|28,58,0,14,|30,63,0,7,|12,68,0,20,|38,50,0,12,|30,31,0,39,|87,5,0,8,|8,72,0,20,|83,16,0,1,|62,21,0,17,|2,48,0,50,|93,3,0,4,|54,44,0,2,|35,39,0,26,|37,63,0,0,|29,1,0,70,|77,20,0,3,|75,3,0,22,|18,77,0,5,|62,0,0,38,|46,13,0,41,|39,34,0,27,|100,0,0,0,|24,68,0,8,|68,13,0,19,|30,28,0,42,|67,23,0,10,|85,15,0,0,|79,5,0,16,|5,20,0,75,|39,46,0,15,|21,32,0,47,|29,55,0,16,|45,38,0,17,|49,39,0,12,|71,21,0,8,|46,41,0,13,|];


%POSITION CONSTRAINTS
%%[|teamID, operator, position|...]
%%operators index:
%%%1 for =  operator
%%%2 for >  operator
%%%3 for >= operator
%%%4 for <  operator
%%%5 for <= operator

positionConstraints=[|17,1,8|9,1,14|];

%SCORE VECTOR CONSTRAINTS
%%[|teamID, operator, wantedPoints|...]
%%operators index:
%%%1 for =  operator
%%%2 for >  operator
%%%3 for >= operator
%%%4 for <  operator
%%%5 for <= operator

%scoreVectorConstraints=[|17,1,50|9,1,41|];

%Instance Features:
%features=T,FP,TF,C,C/T,C/TF,FP/TF,FP/T,FP*C/T,FP*T/C,(C/T)*(FP/TF),Distance,Distance/C,Distance/T,Distance/(C*T)
%values=20,16,38,2,0.1,0.05263157894736842,0.4210526315789473,0.8,1.6,160.0,0.04210526315789474,4,2.0,0.2,0.1



